Set parameter TokenServer to value "hpc-licenses.hpcc.usc.edu"
Set parameter TimeLimit to value 3600
Gurobi Optimizer version 9.5.1 build v9.5.1rc2 (linux64)
Thread count: 20 physical cores, 20 logical processors, using up to 20 threads
Optimize a model with 6007 rows, 4529 columns and 24534 nonzeros
Model fingerprint: 0xf7521b8c
Variable types: 4506 continuous, 23 integer (23 binary)
Coefficient statistics:
  Matrix range     [1e+00, 1e+00]
  Objective range  [1e-03, 1e+00]
  Bounds range     [1e+00, 1e+00]
  RHS range        [1e+00, 2e+02]
Presolve removed 1520 rows and 1515 columns
Presolve time: 0.09s
Presolved: 4487 rows, 3014 columns, 21975 nonzeros
Variable types: 2994 continuous, 20 integer (20 binary)
Found heuristic solution: objective 224.6335968

Root relaxation: objective 2.339662e+02, 3224 iterations, 0.09 seconds (0.15 work units)

    Nodes    |    Current Node    |     Objective Bounds      |     Work
 Expl Unexpl |  Obj  Depth IntInf | Incumbent    BestBd   Gap | It/Node Time

     0     0  233.96622    0    2  224.63360  233.96622  4.15%     -    0s
     0     0  233.95910    0    4  224.63360  233.95910  4.15%     -    0s
H    0     0                     233.8893826  233.95910  0.03%     -    0s

Cutting planes:
  MIR: 49

Explored 1 nodes (3417 simplex iterations) in 0.47 seconds (0.43 work units)
Thread count was 20 (of 20 available processors)

Solution count 2: 233.889 224.634 

Optimal solution found (tolerance 1.00e-04)
Best objective 2.338893826436e+02, best bound 2.338984202468e+02, gap 0.0039%



#########node  1
V1.7
#########node  2
0.013157894736842106,0.9868421052631579
#########node  3
1.0,0.0


Total Solving Time 0.8625173568725586
obj value 233.88938264356977
Policy Regret train (Sum) 4.147362670960024
Best Treatment Found train (%) 70.19999999999999
treatment classification acc train (%) 50.6
Policy Regret test (Sum) 63.74597884426457
Best Treatment Found test (%) 73.06
treatment classification acc test (%) 50.339999999999996
